%-----------------------------------------------------------------------------%
% Dual Arm Multi Capacity Multi Tool Scheduling / Routing
% Assembly Configuration
% Auto Generated by python script, authored by Johan Ludde Wessen 
%-----------------------------------------------------------------------------%


task_durations = [|29, 28, 30, 33, 21, 30, 47, 54, 41, 41, 41, 44, 28, 28,  6,  6,  4,  5,  6
                  |29, 31, 30, 31, 23, 27, 44, 63, 50, 51, 49, 54, 32, 32,  6,  5,  5,  4,  7
                  |];


TRAY_TASKS = 1..4;
CAMERA_TASKS = 13..14;
OUTPUT_TASKS = { 12 };


empty_gripper_tasks = 15..19;


gripper_pick_tasks_orders = [|1, 7, -1
|2, 8, -1
|5, 11, -1
|6, 12, -1
|];

suction_pick_tasks_orders = [|3, 13, 9, -1
|4, 14, 10, -1
|];

fixture_task_orders = [|7, 15, 9, 17, 5, -1, -1, -1
|10, 18, 8, 16, 11, 19, 6, -1
|];

